30
1 0 1
2 0 1
2 1 1
3 0 1
3 1 1
3 2 1
4 0 1
4 1 1
5 0 1
5 2 1
5 3 1
6 0 1
6 2 1
6 5 1
7 2 1
7 3 1
7 4 1
7 5 1
7 6 1
8 0 1
8 1 1
8 2 1
8 3 1
8 4 1
8 5 1
9 2 1
9 4 1
9 5 1
9 6 1
9 7 1
10 1 1
10 2 1
10 4 1
10 5 1
10 6 1
10 8 1
10 9 1
11 0 1
11 2 1
11 6 1
11 7 1
12 3 1
12 5 1
12 6 1
12 9 1
12 10 1
13 3 1
13 6 1
13 8 1
13 12 1
14 0 1
14 2 1
14 5 1
14 6 1
14 7 1
14 9 1
14 10 1
14 11 1
14 12 1
15 0 1
15 2 1
15 6 1
15 7 1
15 11 1
15 12 1
15 14 1
16 1 1
16 3 1
16 4 1
16 6 1
16 7 1
16 9 1
16 10 1
16 12 1
16 13 1
16 14 1
17 1 1
17 2 1
17 6 1
17 13 1
17 15 1
18 2 1
18 5 1
18 8 1
18 10 1
18 13 1
18 14 1
18 15 1
18 16 1
19 0 1
19 1 1
19 2 1
19 3 1
19 8 1
19 9 1
19 13 1
19 15 1
19 16 1
19 18 1
20 0 1
20 1 1
20 2 1
20 3 1
20 11 1
20 12 1
20 13 1
20 16 1
20 17 1
20 18 1
21 1 1
21 5 1
21 6 1
21 7 1
21 8 1
21 9 1
21 11 1
21 13 1
21 14 1
21 15 1
21 16 1
21 17 1
21 18 1
21 19 1
22 0 1
22 1 1
22 2 1
22 4 1
22 8 1
22 10 1
22 11 1
22 13 1
22 14 1
22 18 1
23 2 1
23 3 1
23 5 1
23 6 1
23 7 1
23 12 1
23 14 1
23 17 1
23 20 1
23 21 1
23 22 1
24 2 1
24 7 1
24 8 1
24 10 1
24 12 1
24 13 1
24 15 1
24 18 1
24 20 1
25 0 1
25 2 1
25 3 1
25 5 1
25 6 1
25 7 1
25 8 1
25 10 1
25 13 1
25 14 1
25 16 1
25 18 1
25 23 1
25 24 1
26 0 1
26 4 1
26 5 1
26 6 1
26 9 1
26 12 1
26 13 1
26 14 1
26 18 1
26 20 1
26 21 1
26 22 1
26 23 1
27 0 1
27 1 1
27 2 1
27 3 1
27 7 1
27 8 1
27 11 1
27 12 1
27 13 1
27 14 1
27 16 1
27 17 1
27 20 1
27 21 1
27 22 1
27 25 1
27 26 1
28 1 1
28 2 1
28 3 1
28 5 1
28 7 1
28 11 1
28 19 1
28 20 1
28 21 1
28 24 1
28 27 1
29 2 1
29 3 1
29 4 1
29 5 1
29 8 1
29 9 1
29 10 1
29 12 1
29 14 1
29 15 1
29 16 1
29 18 1
29 22 1
29 23 1
29 26 1
29 27 1
